============================[ Problem Statistics ]=============================|                                                                             ||  Number of variables:          4242                                         ||  Number of clauses:            9995                                         ||  Parse time:                   0.41 s                                       ||                                                                             |============================[ Search Statistics ]==============================| Conflicts |          ORIGINAL         |          LEARNT          | Progress ||           |    Vars  Clauses Literals |    Limit  Clauses Lit/Cl |          |===============================================================================|       100 |    1591     6200   611601 |     2273      100     53 | 62.501 % |===============================================================================restarts              : 3conflicts             : 221            (368 /sec)decisions             : 486            (0.00 % random) (809 /sec)propagations          : 11693          (19456 /sec)conflict literals     : 16106          (95.03 % deleted)CPU time              : 0.601 sSATISFIABLE